NAME : X-n376-66-k62
COMMENT : "Generated by Queiroga, Frota, Sadykov, Subramanian, Uchoa and Vidal (2019)" 
TYPE : CVRP
DIMENSION : 376
EDGE_WEIGHT_TYPE : EUC_2D
CAPACITY : 4
NODE_COORD_SECTION
1 -1 0 0
2 0 989 944
3 0 5 730
4 0 769 200
5 0 698 515
6 0 72 561
7 0 52 397
8 0 839 271
9 0 140 724
10 0 339 580
11 0 30 850
12 0 820 815
13 0 555 844
14 0 388 709
15 0 323 438
16 0 159 983
17 0 989 233
18 0 644 167
19 0 766 151
20 0 387 690
21 0 193 140
22 0 863 192
23 0 149 123
24 0 609 119
25 0 121 204
26 0 625 537
27 0 716 123
28 0 8 219
29 0 429 956
30 0 844 970
31 0 661 66
32 0 347 202
33 0 979 314
34 0 255 772
35 0 634 504
36 0 466 48
37 0 330 90
38 0 929 245
39 0 236 130
40 0 785 0
41 0 251 486
42 0 758 203
43 0 524 280
44 0 798 71
45 0 212 595
46 0 967 478
47 0 504 429
48 0 581 534
49 0 883 899
50 0 605 414
51 0 640 692
52 0 287 432
53 0 641 771
54 0 53 374
55 0 344 325
56 0 647 72
57 0 63 976
58 0 519 235
59 0 485 226
60 0 469 527
61 0 433 168
62 0 538 891
63 0 884 433
64 0 142 134
65 0 234 394
66 0 473 750
67 0 815 622
68 0 130 999
69 0 655 588
70 0 16 235
71 0 503 614
72 0 477 489
73 0 87 78
74 0 689 289
75 0 631 868
76 0 304 743
77 0 624 81
78 0 338 865
79 0 831 984
80 0 312 157
81 0 563 205
82 0 641 435
83 0 189 201
84 0 277 903
85 0 906 949
86 0 601 486
87 0 746 904
88 0 557 409
89 0 854 201
90 0 50 20
91 0 994 111
92 0 584 875
93 0 316 741
94 0 150 56
95 0 377 988
96 0 371 762
97 0 401 741
98 0 890 126
99 0 797 335
100 0 9 301
101 0 923 259
102 0 586 782
103 0 103 99
104 0 166 987
105 0 896 750
106 0 383 86
107 0 603 863
108 0 590 78
109 0 40 554
110 0 755 120
111 0 554 351
112 0 603 102
113 0 279 404
114 0 1 481
115 0 667 931
116 0 609 350
117 0 237 925
118 0 755 779
119 0 607 107
120 0 589 379
121 0 744 130
122 0 469 142
123 0 491 28
124 0 602 512
125 0 329 925
126 0 933 714
127 0 391 982
128 0 285 336
129 0 730 604
130 0 758 153
131 0 831 894
132 0 355 206
133 0 382 353
134 0 887 133
135 0 286 835
136 0 103 743
137 0 929 750
138 0 89 845
139 0 689 515
140 0 903 330
141 0 713 261
142 0 465 494
143 0 922 783
144 0 703 619
145 0 282 745
146 0 939 801
147 0 320 130
148 0 531 25
149 0 887 949
150 0 765 502
151 0 174 187
152 0 993 233
153 0 982 13
154 0 25 851
155 0 228 228
156 0 774 690
157 0 722 969
158 0 133 115
159 0 175 663
160 0 134 106
161 0 469 233
162 0 325 78
163 0 166 547
164 0 416 965
165 0 284 119
166 0 169 541
167 0 302 72
168 0 537 7
169 0 434 329
170 0 59 816
171 0 139 74
172 0 495 746
173 0 890 453
174 0 719 235
175 0 184 528
176 0 863 957
177 0 821 476
178 0 700 645
179 0 400 49
180 0 293 179
181 0 104 271
182 0 882 906
183 0 701 394
184 0 18 221
185 0 819 101
186 0 971 397
187 0 454 960
188 0 348 657
189 0 745 122
190 0 3 510
191 0 981 283
192 0 167 323
193 0 869 880
194 0 844 154
195 0 53 544
196 0 443 825
197 0 879 809
198 0 683 254
199 0 402 59
200 0 719 31
201 0 664 737
202 0 541 249
203 0 204 791
204 0 615 578
205 0 821 381
206 0 767 595
207 0 594 837
208 0 331 365
209 0 145 850
210 0 537 263
211 0 157 938
212 0 147 59
213 0 138 140
214 0 354 240
215 0 435 976
216 0 917 593
217 0 504 643
218 0 552 29
219 0 420 473
220 0 576 665
221 0 648 637
222 0 792 147
223 0 55 92
224 0 635 236
225 0 180 793
226 0 561 629
227 0 743 136
228 0 686 38
229 0 415 672
230 0 678 523
231 0 834 48
232 0 897 63
233 0 868 224
234 0 786 394
235 0 132 915
236 0 513 74
237 0 757 295
238 0 859 823
239 0 398 959
240 0 360 94
241 0 506 114
242 0 699 907
243 0 842 46
244 0 341 918
245 0 240 808
246 0 434 756
247 0 628 184
248 0 938 599
249 0 287 889
250 1 22 999
251 1 374 19
252 1 707 963
253 1 681 762
254 1 750 278
255 1 652 340
256 1 788 95
257 1 653 222
258 1 730 753
259 1 484 573
260 1 395 854
261 1 144 957
262 1 404 597
263 1 849 288
264 1 321 355
265 1 294 41
266 1 43 501
267 1 175 695
268 1 439 486
269 1 949 443
270 1 245 169
271 1 848 143
272 1 198 396
273 1 153 521
274 1 436 824
275 1 703 624
276 1 126 2
277 1 659 523
278 1 370 702
279 1 528 268
280 1 330 488
281 1 420 88
282 1 630 555
283 1 568 848
284 1 992 800
285 1 92 747
286 1 126 152
287 1 18 275
288 1 875 151
289 1 537 418
290 1 598 777
291 1 527 104
292 1 819 522
293 1 316 915
294 1 112 727
295 1 697 29
296 1 243 155
297 1 195 437
298 1 563 820
299 1 583 383
300 1 645 62
301 1 645 77
302 1 174 884
303 1 193 643
304 1 96 519
305 1 336 319
306 1 998 266
307 1 990 922
308 1 753 566
309 1 646 537
310 1 412 328
311 1 386 478
312 1 344 512
313 1 151 492
314 1 625 949
315 1 251 208
316 1 680 428
317 1 135 843
318 1 171 19
319 1 405 150
320 1 146 654
321 1 82 631
322 1 417 950
323 1 121 982
324 1 209 292
325 1 180 796
326 1 51 162
327 1 628 521
328 1 913 714
329 1 820 662
330 1 596 600
331 1 605 229
332 1 378 53
333 1 95 447
334 1 899 216
335 1 685 705
336 1 304 713
337 1 305 760
338 1 636 482
339 1 954 189
340 1 470 857
341 1 450 97
342 1 811 886
343 1 453 64
344 1 230 919
345 1 732 350
346 1 258 429
347 1 674 351
348 1 20 95
349 1 57 298
350 1 136 129
351 1 62 213
352 1 852 852
353 1 538 110
354 1 435 522
355 1 518 452
356 1 816 415
357 1 987 849
358 1 472 154
359 1 893 13
360 1 579 281
361 1 418 966
362 1 391 92
363 1 490 482
364 1 890 711
365 1 552 802
366 1 667 416
367 1 571 581
368 1 71 227
369 1 311 90
370 1 598 723
371 1 845 677
372 1 528 124
373 1 321 456
374 1 817 624
375 1 978 276
376 1 239 960
DEMAND_SECTION
1 0
2 1
3 1
4 1
5 1
6 1
7 1
8 1
9 1
10 1
11 1
12 1
13 1
14 1
15 1
16 1
17 1
18 1
19 1
20 1
21 1
22 1
23 1
24 1
25 1
26 1
27 1
28 1
29 1
30 1
31 1
32 1
33 1
34 1
35 1
36 1
37 1
38 1
39 1
40 1
41 1
42 1
43 1
44 1
45 1
46 1
47 1
48 1
49 1
50 1
51 1
52 1
53 1
54 1
55 1
56 1
57 1
58 1
59 1
60 1
61 1
62 1
63 1
64 1
65 1
66 1
67 1
68 1
69 1
70 1
71 1
72 1
73 1
74 1
75 1
76 1
77 1
78 1
79 1
80 1
81 1
82 1
83 1
84 1
85 1
86 1
87 1
88 1
89 1
90 1
91 1
92 1
93 1
94 1
95 1
96 1
97 1
98 1
99 1
100 1
101 1
102 1
103 1
104 1
105 1
106 1
107 1
108 1
109 1
110 1
111 1
112 1
113 1
114 1
115 1
116 1
117 1
118 1
119 1
120 1
121 1
122 1
123 1
124 1
125 1
126 1
127 1
128 1
129 1
130 1
131 1
132 1
133 1
134 1
135 1
136 1
137 1
138 1
139 1
140 1
141 1
142 1
143 1
144 1
145 1
146 1
147 1
148 1
149 1
150 1
151 1
152 1
153 1
154 1
155 1
156 1
157 1
158 1
159 1
160 1
161 1
162 1
163 1
164 1
165 1
166 1
167 1
168 1
169 1
170 1
171 1
172 1
173 1
174 1
175 1
176 1
177 1
178 1
179 1
180 1
181 1
182 1
183 1
184 1
185 1
186 1
187 1
188 1
189 1
190 1
191 1
192 1
193 1
194 1
195 1
196 1
197 1
198 1
199 1
200 1
201 1
202 1
203 1
204 1
205 1
206 1
207 1
208 1
209 1
210 1
211 1
212 1
213 1
214 1
215 1
216 1
217 1
218 1
219 1
220 1
221 1
222 1
223 1
224 1
225 1
226 1
227 1
228 1
229 1
230 1
231 1
232 1
233 1
234 1
235 1
236 1
237 1
238 1
239 1
240 1
241 1
242 1
243 1
244 1
245 1
246 1
247 1
248 1
249 1
250 1
251 1
252 1
253 1
254 1
255 1
256 1
257 1
258 1
259 1
260 1
261 1
262 1
263 1
264 1
265 1
266 1
267 1
268 1
269 1
270 1
271 1
272 1
273 1
274 1
275 1
276 1
277 1
278 1
279 1
280 1
281 1
282 1
283 1
284 1
285 1
286 1
287 1
288 1
289 1
290 1
291 1
292 1
293 1
294 1
295 1
296 1
297 1
298 1
299 1
300 1
301 1
302 1
303 1
304 1
305 1
306 1
307 1
308 1
309 1
310 1
311 1
312 1
313 1
314 1
315 1
316 1
317 1
318 1
319 1
320 1
321 1
322 1
323 1
324 1
325 1
326 1
327 1
328 1
329 1
330 1
331 1
332 1
333 1
334 1
335 1
336 1
337 1
338 1
339 1
340 1
341 1
342 1
343 1
344 1
345 1
346 1
347 1
348 1
349 1
350 1
351 1
352 1
353 1
354 1
355 1
356 1
357 1
358 1
359 1
360 1
361 1
362 1
363 1
364 1
365 1
366 1
367 1
368 1
369 1
370 1
371 1
372 1
373 1
374 1
375 1
376 1
DEPOT_SECTION
1
-1
EOF
